(set-info :source |printed by MathSAT|)
(declare-fun call_firefly.ite12 () Int)
(declare-fun call_firefly.ite19 () Int)
(declare-fun flby () Bool)
(declare-fun call_firefly.ite31 () Int)
(declare-fun call_firefly.garde3 () Bool)
(declare-fun call_firefly.ite21 () Int)
(declare-fun call_firefly.ite29 () Int)
(declare-fun call_firefly.ite36 () Int)
(declare-fun call_Sofar.flby () Bool)
(declare-fun param_e1 () Bool)
(declare-fun call_firefly.ite20 () Int)
(declare-fun call_firefly.invalid () Int)
(declare-fun call_firefly.ite7 () Int)
(declare-fun call_firefly.ite8 () Int)
(declare-fun param_i_invalid () Int)
(declare-fun call_Sofar.Sofar () Bool)
(declare-fun call_firefly.ite11 () Int)
(declare-fun call_firefly.ite () Int)
(declare-fun call_firefly.shared () Int)
(declare-fun call_firefly.ite10 () Int)
(declare-fun param_e4 () Bool)
(declare-fun call_firefly.ite24 () Int)
(declare-fun call_firefly.ite9 () Int)
(declare-fun call_firefly.flby4 () Int)
(declare-fun env () Bool)
(declare-fun call_firefly.ite5 () Int)
(declare-fun call_firefly.ite14 () Int)
(declare-fun call_firefly.dirty () Int)
(declare-fun call_firefly.ite26 () Int)
(declare-fun call_firefly.mem_invalid () Int)
(declare-fun call_firefly.ite15 () Int)
(declare-fun call_firefly.ite17 () Int)
(declare-fun call_firefly.flby () Int)
(declare-fun call_firefly.flby3 () Int)
(declare-fun call_firefly.ite30 () Int)
(declare-fun call_firefly.ite22 () Int)
(declare-fun call_firefly.ite40 () Int)
(declare-fun call_firefly.ite16 () Int)
(declare-fun call_firefly.garde8 () Bool)
(declare-fun param_e7 () Bool)
(declare-fun param_e6 () Bool)
(declare-fun call_firefly.flby5 () Int)
(declare-fun call_firefly.exclusive () Int)
(declare-fun call_firefly.ite3 () Int)
(declare-fun call_firefly.ite38 () Int)
(declare-fun call_firefly.ite4 () Int)
(declare-fun param_e2 () Bool)
(declare-fun call_firefly.flby2 () Int)
(declare-fun call_firefly.ite33 () Int)
(declare-fun invalid () Int)
(declare-fun call_firefly.ite28 () Int)
(declare-fun shared () Int)
(declare-fun param_e8 () Bool)
(declare-fun call_firefly.ite13 () Int)
(declare-fun call_firefly.ite23 () Int)
(declare-fun exclusive () Int)
(declare-fun param_e5 () Bool)
(declare-fun call_firefly.ite34 () Int)
(declare-fun call_firefly.ite25 () Int)
(declare-fun call_excludes8.excludes () Bool)
(declare-fun call_firefly.garde6 () Bool)
(declare-fun call_firefly.ite32 () Int)
(declare-fun call_firefly.ite37 () Int)
(declare-fun call_firefly.ite35 () Int)
(declare-fun call_firefly.ite39 () Int)
(declare-fun _OK_ () Bool)
(declare-fun call_firefly.ite6 () Int)
(declare-fun call_firefly.ite27 () Int)
(declare-fun param_e3 () Bool)
(declare-fun call_firefly.ite18 () Int)
(declare-fun call_firefly.ite2 () Int)
(declare-fun dirty () Int)
(define-fun .def_1115 () Bool (= call_Sofar.flby call_Sofar.Sofar))
(define-fun .def_925 () Bool (not param_e1))
(define-fun .def_898 () Bool (not param_e2))
(define-fun .def_1063 () Bool (and .def_898 .def_925))
(define-fun .def_944 () Bool (not param_e3))
(define-fun .def_1064 () Bool (and .def_944 .def_1063))
(define-fun .def_969 () Bool (not param_e4))
(define-fun .def_1065 () Bool (and .def_969 .def_1064))
(define-fun .def_986 () Bool (not param_e5))
(define-fun .def_1066 () Bool (and .def_986 .def_1065))
(define-fun .def_1004 () Bool (not param_e6))
(define-fun .def_1067 () Bool (and .def_1004 .def_1066))
(define-fun .def_829 () Bool (not param_e7))
(define-fun .def_1068 () Bool (and .def_829 .def_1067))
(define-fun .def_837 () Bool (not param_e8))
(define-fun .def_1104 () Bool (and .def_837 .def_1068))
(define-fun .def_1097 () Bool (and .def_898 param_e1))
(define-fun .def_1098 () Bool (and .def_944 .def_1097))
(define-fun .def_1099 () Bool (and .def_969 .def_1098))
(define-fun .def_1100 () Bool (and .def_986 .def_1099))
(define-fun .def_1101 () Bool (and .def_1004 .def_1100))
(define-fun .def_1102 () Bool (and .def_829 .def_1101))
(define-fun .def_1103 () Bool (and .def_837 .def_1102))
(define-fun .def_1105 () Bool (or .def_1103 .def_1104))
(define-fun .def_1090 () Bool (and param_e2 .def_925))
(define-fun .def_1091 () Bool (and .def_944 .def_1090))
(define-fun .def_1092 () Bool (and .def_969 .def_1091))
(define-fun .def_1093 () Bool (and .def_986 .def_1092))
(define-fun .def_1094 () Bool (and .def_1004 .def_1093))
(define-fun .def_1095 () Bool (and .def_829 .def_1094))
(define-fun .def_1096 () Bool (and .def_837 .def_1095))
(define-fun .def_1106 () Bool (or .def_1096 .def_1105))
(define-fun .def_1084 () Bool (and param_e3 .def_1063))
(define-fun .def_1085 () Bool (and .def_969 .def_1084))
(define-fun .def_1086 () Bool (and .def_986 .def_1085))
(define-fun .def_1087 () Bool (and .def_1004 .def_1086))
(define-fun .def_1088 () Bool (and .def_829 .def_1087))
(define-fun .def_1089 () Bool (and .def_837 .def_1088))
(define-fun .def_1107 () Bool (or .def_1089 .def_1106))
(define-fun .def_1079 () Bool (and param_e4 .def_1064))
(define-fun .def_1080 () Bool (and .def_986 .def_1079))
(define-fun .def_1081 () Bool (and .def_1004 .def_1080))
(define-fun .def_1082 () Bool (and .def_829 .def_1081))
(define-fun .def_1083 () Bool (and .def_837 .def_1082))
(define-fun .def_1108 () Bool (or .def_1083 .def_1107))
(define-fun .def_1075 () Bool (and param_e5 .def_1065))
(define-fun .def_1076 () Bool (and .def_1004 .def_1075))
(define-fun .def_1077 () Bool (and .def_829 .def_1076))
(define-fun .def_1078 () Bool (and .def_837 .def_1077))
(define-fun .def_1109 () Bool (or .def_1078 .def_1108))
(define-fun .def_1072 () Bool (and param_e6 .def_1066))
(define-fun .def_1073 () Bool (and .def_829 .def_1072))
(define-fun .def_1074 () Bool (and .def_837 .def_1073))
(define-fun .def_1110 () Bool (or .def_1074 .def_1109))
(define-fun .def_1070 () Bool (and param_e7 .def_1067))
(define-fun .def_1071 () Bool (and .def_837 .def_1070))
(define-fun .def_1111 () Bool (or .def_1071 .def_1110))
(define-fun .def_1069 () Bool (and param_e8 .def_1068))
(define-fun .def_1112 () Bool (or .def_1069 .def_1111))
(define-fun .def_1113 () Bool (= call_excludes8.excludes .def_1112))
(define-fun .def_1061 () Bool (= call_firefly.flby call_firefly.mem_invalid))
(define-fun .def_1059 () Bool (= call_firefly.flby5 call_firefly.shared))
(define-fun .def_1057 () Bool (= call_firefly.flby4 call_firefly.exclusive))
(define-fun .def_1055 () Bool (= call_firefly.flby3 call_firefly.dirty))
(define-fun .def_1053 () Bool (= call_firefly.flby2 call_firefly.invalid))
(define-fun .def_1051 () Bool (= env call_Sofar.Sofar))
(define-fun .def_1048 () Bool (= shared call_firefly.shared))
(define-fun .def_1044 () Bool (= exclusive call_firefly.exclusive))
(define-fun .def_1040 () Bool (= dirty call_firefly.dirty))
(define-fun .def_1036 () Bool (= invalid call_firefly.invalid))
(define-fun .def_1030 () Bool (not env))
(define-fun .def_1031 () Bool (or flby .def_1030))
(define-fun .def_1032 () Bool (= _OK_ .def_1031))
(define-fun .def_1024 () Bool (= call_firefly.ite36 call_firefly.ite37))
(define-fun .def_1025 () Bool (or param_e7 .def_1024))
(define-fun .def_1021 () Bool (= call_firefly.ite37 call_firefly.ite34))
(define-fun .def_1022 () Bool (or .def_829 .def_1021))
(define-fun .def_1017 () Bool (= call_firefly.ite8 call_firefly.ite5))
(define-fun .def_1018 () Bool (or .def_829 .def_1017))
(define-fun .def_1014 () Bool (= call_firefly.ite7 call_firefly.ite8))
(define-fun .def_1015 () Bool (or param_e7 .def_1014))
(define-fun .def_1019 () Bool (and .def_1015 .def_1018))
(define-fun .def_1023 () Bool (and .def_1019 .def_1022))
(define-fun .def_1026 () Bool (and .def_1023 .def_1025))
(define-fun .def_1010 () Bool (= call_firefly.ite17 call_firefly.ite18))
(define-fun .def_1011 () Bool (or param_e6 .def_1010))
(define-fun .def_1007 () Bool (= call_firefly.ite15 call_firefly.ite18))
(define-fun .def_1008 () Bool (or .def_1004 .def_1007))
(define-fun .def_1003 () Bool (= call_firefly.ite9 call_firefly.ite4))
(define-fun .def_1005 () Bool (or .def_1003 .def_1004))
(define-fun .def_999 () Bool (= call_firefly.ite9 call_firefly.ite8))
(define-fun .def_1001 () Bool (or .def_999 param_e6))
(define-fun .def_1006 () Bool (and .def_1001 .def_1005))
(define-fun .def_1009 () Bool (and .def_1006 .def_1008))
(define-fun .def_1012 () Bool (and .def_1009 .def_1011))
(define-fun .def_994 () Bool (= call_firefly.ite38 call_firefly.ite37))
(define-fun .def_995 () Bool (or param_e5 .def_994))
(define-fun .def_990 () Bool (= call_firefly.ite38 call_firefly.ite33))
(define-fun .def_991 () Bool (or .def_986 .def_990))
(define-fun .def_985 () Bool (= call_firefly.ite27 call_firefly.ite24))
(define-fun .def_987 () Bool (or .def_985 .def_986))
(define-fun .def_981 () Bool (= call_firefly.ite26 call_firefly.ite27))
(define-fun .def_983 () Bool (or .def_981 param_e5))
(define-fun .def_988 () Bool (and .def_983 .def_987))
(define-fun .def_992 () Bool (and .def_988 .def_991))
(define-fun .def_996 () Bool (and .def_992 .def_995))
(define-fun .def_977 () Bool (= call_firefly.ite28 call_firefly.ite27))
(define-fun .def_978 () Bool (or param_e4 .def_977))
(define-fun .def_973 () Bool (= call_firefly.ite28 call_firefly.ite23))
(define-fun .def_974 () Bool (or .def_969 .def_973))
(define-fun .def_968 () Bool (= call_firefly.ite19 call_firefly.ite14))
(define-fun .def_970 () Bool (or .def_968 .def_969))
(define-fun .def_964 () Bool (= call_firefly.ite19 call_firefly.ite18))
(define-fun .def_966 () Bool (or .def_964 param_e4))
(define-fun .def_971 () Bool (and .def_966 .def_970))
(define-fun .def_975 () Bool (and .def_971 .def_974))
(define-fun .def_979 () Bool (and .def_975 .def_978))
(define-fun .def_959 () Bool (= call_firefly.ite39 call_firefly.ite38))
(define-fun .def_960 () Bool (or param_e3 .def_959))
(define-fun .def_955 () Bool (= call_firefly.ite39 call_firefly.ite32))
(define-fun .def_956 () Bool (or .def_944 .def_955))
(define-fun .def_951 () Bool (= call_firefly.ite29 call_firefly.ite28))
(define-fun .def_952 () Bool (or param_e3 .def_951))
(define-fun .def_947 () Bool (= call_firefly.ite22 call_firefly.ite29))
(define-fun .def_948 () Bool (or .def_944 .def_947))
(define-fun .def_943 () Bool (= call_firefly.ite10 call_firefly.ite3))
(define-fun .def_945 () Bool (or .def_943 .def_944))
(define-fun .def_939 () Bool (= call_firefly.ite10 call_firefly.ite9))
(define-fun .def_941 () Bool (or .def_939 param_e3))
(define-fun .def_946 () Bool (and .def_941 .def_945))
(define-fun .def_949 () Bool (and .def_946 .def_948))
(define-fun .def_953 () Bool (and .def_949 .def_952))
(define-fun .def_957 () Bool (and .def_953 .def_956))
(define-fun .def_961 () Bool (and .def_957 .def_960))
(define-fun .def_934 () Bool (= call_firefly.ite30 call_firefly.ite29))
(define-fun .def_935 () Bool (or param_e1 .def_934))
(define-fun .def_930 () Bool (= call_firefly.ite21 call_firefly.ite30))
(define-fun .def_931 () Bool (or .def_925 .def_930))
(define-fun .def_924 () Bool (= call_firefly.ite12 call_firefly.ite))
(define-fun .def_926 () Bool (or .def_924 .def_925))
(define-fun .def_920 () Bool (= call_firefly.ite11 call_firefly.ite12))
(define-fun .def_922 () Bool (or .def_920 param_e1))
(define-fun .def_927 () Bool (and .def_922 .def_926))
(define-fun .def_932 () Bool (and .def_927 .def_931))
(define-fun .def_936 () Bool (and .def_932 .def_935))
(define-fun .def_916 () Bool (= call_firefly.ite40 call_firefly.ite39))
(define-fun .def_917 () Bool (or param_e2 .def_916))
(define-fun .def_912 () Bool (= call_firefly.ite31 call_firefly.ite40))
(define-fun .def_913 () Bool (or .def_898 .def_912))
(define-fun .def_907 () Bool (= call_firefly.ite20 call_firefly.ite19))
(define-fun .def_908 () Bool (or param_e2 .def_907))
(define-fun .def_903 () Bool (= call_firefly.ite13 call_firefly.ite20))
(define-fun .def_904 () Bool (or .def_898 .def_903))
(define-fun .def_897 () Bool (= call_firefly.ite11 call_firefly.ite2))
(define-fun .def_899 () Bool (or .def_897 .def_898))
(define-fun .def_893 () Bool (= call_firefly.ite11 call_firefly.ite10))
(define-fun .def_895 () Bool (or .def_893 param_e2))
(define-fun .def_900 () Bool (and .def_895 .def_899))
(define-fun .def_905 () Bool (and .def_900 .def_904))
(define-fun .def_909 () Bool (and .def_905 .def_908))
(define-fun .def_914 () Bool (and .def_909 .def_913))
(define-fun .def_918 () Bool (and .def_914 .def_917))
(define-fun .def_937 () Bool (and .def_918 .def_936))
(define-fun .def_962 () Bool (and .def_937 .def_961))
(define-fun .def_980 () Bool (and .def_962 .def_979))
(define-fun .def_997 () Bool (and .def_980 .def_996))
(define-fun .def_1013 () Bool (and .def_997 .def_1012))
(define-fun .def_1027 () Bool (and .def_1013 .def_1026))
(define-fun .def_1033 () Bool (and .def_1027 .def_1032))
(define-fun .def_1037 () Bool (and .def_1033 .def_1036))
(define-fun .def_1041 () Bool (and .def_1037 .def_1040))
(define-fun .def_1045 () Bool (and .def_1041 .def_1044))
(define-fun .def_1049 () Bool (and .def_1045 .def_1048))
(define-fun .def_1052 () Bool (and .def_1049 .def_1051))
(define-fun .def_1054 () Bool (and .def_1052 .def_1053))
(define-fun .def_1056 () Bool (and .def_1054 .def_1055))
(define-fun .def_1058 () Bool (and .def_1056 .def_1057))
(define-fun .def_1060 () Bool (and .def_1058 .def_1059))
(define-fun .def_1062 () Bool (and .def_1060 .def_1061))
(define-fun .def_1114 () Bool (and .def_1062 .def_1113))
(define-fun .def_1116 () Bool (and .def_1114 .def_1115))
(define-fun .def_884 () Bool (<= param_i_invalid 0))
(define-fun .def_885 () Bool (not .def_884))
(define-fun .def_887 () Bool (and .def_885 call_excludes8.excludes))
(define-fun .def_889 () Bool (= .def_887 call_Sofar.flby))
(define-fun .def_882 () Bool (= call_firefly.flby5 0))
(define-fun .def_879 () Bool (= call_firefly.flby4 0))
(define-fun .def_876 () Bool (= call_firefly.flby3 0))
(define-fun .def_873 () Bool (= call_firefly.flby2 call_firefly.mem_invalid))
(define-fun .def_869 () Bool (= param_i_invalid call_firefly.flby))
(define-fun .def_864 () Bool (= call_firefly.ite25 0))
(define-fun .def_863 () Bool (not call_firefly.garde8))
(define-fun .def_865 () Bool (or .def_863 .def_864))
(define-fun .def_859 () Bool (= call_firefly.ite15 1))
(define-fun .def_857 () Bool (not call_firefly.garde6))
(define-fun .def_860 () Bool (or .def_857 .def_859))
(define-fun .def_853 () Bool (= call_firefly.ite22 0))
(define-fun .def_851 () Bool (not call_firefly.garde3))
(define-fun .def_854 () Bool (or .def_851 .def_853))
(define-fun .def_846 () Bool (= call_firefly.ite35 call_firefly.ite36))
(define-fun .def_847 () Bool (or .def_837 .def_846))
(define-fun .def_841 () Bool (= call_firefly.ite6 call_firefly.ite7))
(define-fun .def_842 () Bool (or .def_837 .def_841))
(define-fun .def_835 () Bool (= call_firefly.ite25 call_firefly.ite26))
(define-fun .def_838 () Bool (or .def_835 .def_837))
(define-fun .def_843 () Bool (and .def_838 .def_842))
(define-fun .def_848 () Bool (and .def_843 .def_847))
(define-fun .def_827 () Bool (= call_firefly.ite16 call_firefly.ite17))
(define-fun .def_830 () Bool (or .def_827 .def_829))
(define-fun .def_832 () Bool (and .def_830 flby))
(define-fun .def_849 () Bool (and .def_832 .def_848))
(define-fun .def_855 () Bool (and .def_849 .def_854))
(define-fun .def_861 () Bool (and .def_855 .def_860))
(define-fun .def_866 () Bool (and .def_861 .def_865))
(define-fun .def_870 () Bool (and .def_866 .def_869))
(define-fun .def_874 () Bool (and .def_870 .def_873))
(define-fun .def_877 () Bool (and .def_874 .def_876))
(define-fun .def_880 () Bool (and .def_877 .def_879))
(define-fun .def_883 () Bool (and .def_880 .def_882))
(define-fun .def_890 () Bool (and .def_883 .def_889))
(define-fun .def_1117 () Bool (and .def_890 .def_1116))
(assert .def_1117)
